Geographic Exponential Decay
20 146 150 290 77 74 24 233 22 50 218 6 44 239 153 180 303 240 40 33 151
p edge 320 637
e 0 61 1.0
e 1 184 3.0
e 1 160 4.0
e 2 64 1.0
e 3 252 1.0
e 4 299 1.0
e 5 195 1.0
e 5 64 4.0
e 6 155 92.0
e 6 170 45.0
e 6 47 79.0
e 6 5 82.0
e 6 52 65.0
e 6 84 15.0
e 6 100 17.0
e 6 40 79.0
e 6 217 26.0
e 6 85 91.0
e 6 249 37.0
e 6 109 88.0
e 6 113 75.0
e 6 231 62.0
e 6 154 90.0
e 6 0 69.0
e 6 111 22.0
e 7 262 1.0
e 8 117 3.0
e 9 171 8.0
e 9 31 11.0
e 9 239 18.0
e 9 278 15.0
e 9 168 5.0
e 10 289 3.0
e 11 144 1.0
e 12 122 4.0
e 13 124 7.0
e 14 287 8.0
e 15 293 1.0
e 16 87 1.0
e 17 228 1.0
e 18 17 9.0
e 18 116 9.0
e 18 70 3.0
e 19 271 2.0
e 20 208 2.0
e 21 248 2.0
e 22 312 57.0
e 22 72 53.0
e 22 279 35.0
e 22 240 45.0
e 22 182 23.0
e 22 15 35.0
e 22 173 34.0
e 22 8 57.0
e 22 304 7.0
e 22 280 43.0
e 22 94 99.0
e 22 48 91.0
e 22 135 14.0
e 22 229 38.0
e 22 44 10.0
e 22 76 72.0
e 22 82 96.0
e 23 242 1.0
e 24 273 26.0
e 24 108 57.0
e 24 147 61.0
e 24 210 56.0
e 24 212 48.0
e 24 143 75.0
e 24 39 82.0
e 24 196 52.0
e 24 43 22.0
e 24 256 64.0
e 24 213 90.0
e 24 122 28.0
e 24 274 53.0
e 24 132 73.0
e 24 234 95.0
e 24 13 69.0
e 24 264 94.0
e 25 136 1.0
e 26 117 2.0
e 27 297 21.0
e 27 180 59.0
e 28 173 4.0
e 28 269 1.0
e 29 37 3.0
e 30 142 1.0
e 31 171 23.0
e 31 40 73.0
e 31 285 14.0
e 31 229 9.0
e 32 318 1.0
e 33 302 96.0
e 33 234 85.0
e 33 75 37.0
e 33 131 75.0
e 33 156 1.0
e 33 2 95.0
e 33 255 35.0
e 33 124 76.0
e 33 122 37.0
e 33 56 4.0
e 33 8 49.0
e 33 288 98.0
e 33 257 25.0
e 33 316 25.0
e 33 170 13.0
e 33 102 12.0
e 33 40 16.0
e 34 66 2.0
e 35 272 6.0
e 35 47 2.0
e 36 253 17.0
e 37 125 4.0
e 37 54 6.0
e 38 20 1.0
e 40 106 97.0
e 40 7 42.0
e 40 288 20.0
e 40 89 12.0
e 40 52 27.0
e 40 80 54.0
e 40 271 55.0
e 40 115 40.0
e 40 209 96.0
e 40 86 15.0
e 40 25 60.0
e 40 11 9.0
e 40 262 17.0
e 40 254 9.0
e 41 89 1.0
e 42 196 4.0
e 42 69 1.0
e 43 168 5.0
e 43 310 8.0
e 44 145 12.0
e 44 199 81.0
e 44 2 67.0
e 44 178 79.0
e 44 110 94.0
e 44 49 14.0
e 44 217 38.0
e 44 31 15.0
e 44 17 87.0
e 44 11 63.0
e 44 224 20.0
e 44 115 39.0
e 44 125 8.0
e 44 103 44.0
e 44 247 5.0
e 44 211 7.0
e 45 158 5.0
e 45 144 1.0
e 46 316 1.0
e 50 194 90.0
e 50 275 22.0
e 50 288 44.0
e 50 140 49.0
e 50 197 49.0
e 50 119 68.0
e 50 93 94.0
e 50 143 56.0
e 50 68 96.0
e 50 150 4.0
e 50 126 71.0
e 50 84 63.0
e 50 45 56.0
e 50 196 92.0
e 50 158 29.0
e 50 274 91.0
e 50 195 86.0
e 51 149 4.0
e 53 273 1.0
e 55 208 1.0
e 55 209 2.0
e 56 46 2.0
e 57 177 8.0
e 57 38 3.0
e 57 255 5.0
e 58 284 20.0
e 58 301 3.0
e 59 278 5.0
e 60 249 2.0
e 60 58 5.0
e 62 89 4.0
e 62 170 1.0
e 63 143 5.0
e 63 96 1.0
e 65 105 11.0
e 67 287 12.0
e 70 195 3.0
e 71 64 11.0
e 71 284 12.0
e 71 303 3.0
e 72 106 9.0
e 72 229 12.0
e 73 142 1.0
e 74 8 94.0
e 74 127 51.0
e 74 111 80.0
e 74 146 75.0
e 74 302 21.0
e 74 176 2.0
e 74 235 32.0
e 74 166 62.0
e 74 295 65.0
e 74 201 41.0
e 74 188 87.0
e 74 246 39.0
e 74 204 76.0
e 74 49 74.0
e 74 28 3.0
e 74 116 38.0
e 74 12 27.0
e 76 290 42.0
e 76 96 3.0
e 77 47 40.0
e 77 93 35.0
e 77 32 58.0
e 77 156 51.0
e 77 53 94.0
e 77 292 72.0
e 77 84 29.0
e 77 110 14.0
e 77 276 38.0
e 77 148 33.0
e 77 286 10.0
e 77 137 89.0
e 77 205 31.0
e 77 97 19.0
e 77 24 34.0
e 77 255 66.0
e 77 144 53.0
e 78 196 5.0
e 79 215 1.0
e 79 130 4.0
e 79 0 2.0
e 80 173 10.0
e 81 284 15.0
e 81 3 2.0
e 83 97 4.0
e 88 253 7.0
e 88 44 77.0
e 90 24 35.0
e 90 61 5.0
e 91 164 1.0
e 92 213 5.0
e 92 133 27.0
e 92 31 1.0
e 94 263 1.0
e 95 274 1.0
e 98 2 1.0
e 99 38 1.0
e 100 107 1.0
e 101 102 1.0
e 103 50 90.0
e 103 203 6.0
e 104 188 2.0
e 104 111 1.0
e 105 177 3.0
e 105 235 6.0
e 112 47 2.0
e 113 280 3.0
e 114 79 6.0
e 115 160 2.0
e 115 113 8.0
e 115 162 18.0
e 118 15 1.0
e 119 83 1.0
e 119 265 4.0
e 120 124 10.0
e 121 249 9.0
e 121 287 7.0
e 121 259 6.0
e 123 172 1.0
e 125 9 21.0
e 126 209 1.0
e 128 19 1.0
e 129 23 3.0
e 129 195 20.0
e 129 34 1.0
e 129 59 2.0
e 129 25 18.0
e 132 211 1.0
e 133 20 43.0
e 133 312 10.0
e 133 152 13.0
e 133 13 31.0
e 133 282 47.0
e 133 291 12.0
e 133 111 42.0
e 133 304 47.0
e 134 61 1.0
e 135 226 4.0
e 135 260 6.0
e 137 106 1.0
e 138 48 1.0
e 139 110 5.0
e 139 115 17.0
e 141 230 3.0
e 141 140 2.0
e 145 210 13.0
e 146 33 18.0
e 146 275 17.0
e 146 80 51.0
e 146 78 66.0
e 146 222 40.0
e 146 43 54.0
e 146 99 84.0
e 146 92 47.0
e 146 205 100.0
e 146 154 15.0
e 146 220 23.0
e 146 290 83.0
e 146 286 40.0
e 146 45 45.0
e 146 155 93.0
e 146 208 92.0
e 147 148 3.0
e 149 3 1.0
e 149 310 9.0
e 150 285 16.0
e 150 270 66.0
e 150 298 87.0
e 150 82 79.0
e 150 142 98.0
e 150 229 77.0
e 150 269 47.0
e 150 173 26.0
e 150 136 39.0
e 150 251 94.0
e 150 0 73.0
e 150 41 55.0
e 150 98 66.0
e 150 56 53.0
e 150 314 52.0
e 150 46 43.0
e 151 51 57.0
e 151 183 59.0
e 151 169 91.0
e 151 177 27.0
e 151 87 13.0
e 151 30 71.0
e 151 89 56.0
e 151 210 6.0
e 151 294 84.0
e 151 18 68.0
e 151 293 68.0
e 151 307 82.0
e 151 211 94.0
e 151 219 1.0
e 151 60 75.0
e 151 212 62.0
e 151 120 97.0
e 152 196 3.0
e 153 63 6.0
e 153 270 23.0
e 153 290 9.0
e 153 309 57.0
e 153 253 82.0
e 153 254 57.0
e 153 296 9.0
e 153 186 76.0
e 153 82 64.0
e 153 41 27.0
e 153 262 13.0
e 153 16 42.0
e 153 107 32.0
e 153 155 17.0
e 153 39 45.0
e 153 292 26.0
e 153 136 42.0
e 157 28 2.0
e 157 77 92.0
e 159 312 5.0
e 159 287 7.0
e 160 230 6.0
e 161 132 9.0
e 161 301 5.0
e 161 158 11.0
e 162 265 8.0
e 162 192 9.0
e 162 315 12.0
e 162 166 21.0
e 163 168 3.0
e 165 188 2.0
e 167 192 8.0
e 167 166 11.0
e 167 286 3.0
e 174 62 1.0
e 174 34 1.0
e 175 202 5.0
e 175 112 4.0
e 176 151 46.0
e 176 217 13.0
e 176 163 11.0
e 176 65 46.0
e 176 187 26.0
e 176 164 5.0
e 176 165 23.0
e 176 198 17.0
e 179 224 1.0
e 180 33 75.0
e 180 0 93.0
e 180 241 92.0
e 180 301 52.0
e 180 92 90.0
e 180 28 36.0
e 180 310 19.0
e 180 183 28.0
e 180 82 9.0
e 180 1 73.0
e 180 166 72.0
e 180 266 55.0
e 180 267 39.0
e 180 104 6.0
e 180 292 13.0
e 180 302 98.0
e 181 303 92.0
e 181 134 7.0
e 181 124 7.0
e 181 6 12.0
e 181 92 42.0
e 181 150 49.0
e 181 300 11.0
e 181 305 29.0
e 181 174 24.0
e 184 160 6.0
e 185 230 3.0
e 189 5 9.0
e 189 208 3.0
e 189 83 10.0
e 190 67 3.0
e 190 213 6.0
e 190 76 6.0
e 191 298 4.0
e 193 182 3.0
e 197 273 4.0
e 197 314 6.0
e 198 273 12.0
e 198 210 6.0
e 199 183 5.0
e 200 39 2.0
e 201 285 5.0
e 202 235 5.0
e 203 48 9.0
e 203 123 4.0
e 204 201 3.0
e 206 21 1.0
e 207 278 1.0
e 207 317 5.0
e 210 249 8.0
e 214 227 7.0
e 216 55 3.0
e 216 166 2.0
e 218 252 9.0
e 218 110 45.0
e 218 98 51.0
e 218 301 100.0
e 218 167 54.0
e 218 224 83.0
e 218 233 65.0
e 218 101 65.0
e 218 259 48.0
e 218 165 64.0
e 218 180 34.0
e 218 19 88.0
e 218 69 80.0
e 218 150 77.0
e 218 117 4.0
e 218 302 58.0
e 218 313 70.0
e 220 67 8.0
e 220 193 2.0
e 221 45 1.0
e 221 126 5.0
e 222 18 14.0
e 222 285 5.0
e 222 306 2.0
e 222 223 24.0
e 225 64 1.0
e 226 44 92.0
e 226 254 4.0
e 227 63 10.0
e 227 32 10.0
e 232 192 6.0
e 232 302 7.0
e 232 171 11.0
e 233 24 41.0
e 233 298 20.0
e 233 165 69.0
e 233 262 31.0
e 233 263 13.0
e 233 42 40.0
e 233 274 68.0
e 233 112 33.0
e 233 105 81.0
e 233 202 89.0
e 233 29 74.0
e 233 170 3.0
e 233 217 77.0
e 233 162 1.0
e 233 164 79.0
e 233 236 22.0
e 237 71 1.0
e 237 56 1.0
e 238 247 11.0
e 238 308 7.0
e 238 84 8.0
e 239 156 51.0
e 239 105 2.0
e 239 167 76.0
e 239 50 7.0
e 239 185 79.0
e 239 249 41.0
e 239 194 14.0
e 239 159 5.0
e 239 65 3.0
e 239 89 98.0
e 239 207 56.0
e 239 192 40.0
e 239 312 10.0
e 239 5 27.0
e 239 218 99.0
e 239 58 66.0
e 240 70 80.0
e 240 113 87.0
e 240 142 94.0
e 240 173 15.0
e 240 25 65.0
e 240 194 1.0
e 240 184 3.0
e 240 236 34.0
e 240 108 41.0
e 240 158 76.0
e 240 20 49.0
e 240 48 8.0
e 240 129 3.0
e 240 117 92.0
e 240 150 73.0
e 240 154 20.0
e 243 99 9.0
e 243 263 4.0
e 243 204 17.0
e 243 211 16.0
e 243 312 7.0
e 244 34 9.0
e 244 110 1.0
e 244 30 7.0
e 245 182 2.0
e 250 197 2.0
e 250 85 4.0
e 253 29 20.0
e 253 275 21.0
e 256 218 48.0
e 256 144 6.0
e 258 100 6.0
e 258 125 3.0
e 259 141 12.0
e 261 179 1.0
e 261 133 8.0
e 267 119 9.0
e 267 161 7.0
e 268 211 3.0
e 272 151 32.0
e 276 40 8.0
e 276 3 11.0
e 277 193 2.0
e 277 255 2.0
e 279 101 2.0
e 281 269 5.0
e 281 255 12.0
e 281 145 13.0
e 281 288 3.0
e 281 75 23.0
e 283 68 1.0
e 283 134 1.0
e 284 104 7.0
e 284 171 23.0
e 289 50 50.0
e 290 316 59.0
e 290 259 34.0
e 290 15 30.0
e 290 40 50.0
e 290 214 46.0
e 290 102 28.0
e 290 193 67.0
e 290 175 32.0
e 290 115 92.0
e 290 167 11.0
e 290 99 90.0
e 290 185 29.0
e 290 271 6.0
e 290 301 27.0
e 294 221 9.0
e 294 65 1.0
e 297 311 9.0
e 297 194 16.0
e 297 163 24.0
e 297 278 13.0
e 299 198 8.0
e 299 147 6.0
e 300 16 2.0
e 303 258 83.0
e 303 46 4.0
e 303 209 65.0
e 303 49 82.0
e 303 219 65.0
e 303 191 99.0
e 303 85 80.0
e 303 126 40.0
e 303 184 62.0
e 303 58 52.0
e 303 313 70.0
e 303 199 61.0
e 303 282 52.0
e 303 314 26.0
e 303 152 87.0
e 305 292 2.0
e 305 248 2.0
e 308 256 7.0
e 311 222 24.0
e 311 315 40.0
e 311 230 16.0
e 311 187 18.0
e 315 263 46.0
e 315 205 11.0
e 315 282 46.0
e 315 181 40.0
e 315 112 28.0
e 315 121 39.0
e 315 304 12.0
e 318 257 1.0
e 319 36 1.0
e 319 35 1.0
